r = [
0,132,278,283,295,179,304,169,121,330,257,223,325,47,141,309,295,112,60,264,261,182,81,96,288,103,0
];
p = [
0,3,30,26,2,26,11,21,20,8,27,11,26,16,10,16,17,2,20,21,13,28,19,27,6,28,0
];
e = [
0,5,10,13,19,8,10,11,20,6,13,19,2,4,6,1,12,7,6,12,18,16,5,3,10,1,0
];
d = [
0,156,331,331,318,234,365,193,167,389,321,262,380,104,198,352,330,174,123,292,285,237,138,124,313,153,390
];
d_bar = [
0,157,334,334,319,237,366,195,169,390,324,263,383,106,199,354,332,175,125,294,286,240,140,127,314,156,390
];
w = [
0,5,3.333333333,4.333333333,19,2.666666667,10,5.5,10,6,4.333333333,19,0.666666667,2,6,0.5,6,7,3,6,18,5.333333333,2.5,1,10,0.333333333,0
];
